c clasp version 2.1.4
c Reading from ...arks/28_Nodes/PBencd_EuclideanCost.opb
c Solving...
o 1050
o 1031
o 1015
o 994
o 992
o 988
o 978
o 974
o 967
o 933
o 910
o 909
o 882
o 878
o 876
o 874
o 870
o 865
o 858
o 857
o 855
o 851
o 850
o 846
o 844
o 843
o 842
o 837
o 836
o 833
o 814
o 813
o 810
o 809
o 797
o 795
o 794
o 792
o 788
o 786
o 766
o 760
o 759
o 753
o 747
o 741
o 740
o 738
o 731
o 725
o 712
o 709
o 700
o 694
o 687
o 685
o 682
o 681
o 679
o 655
o 653
o 646
o 644
o 637
o 635
o 624
o 613
o 611
o 607
o 604
o 595
o 592
o 584
o 583
o 579
o 576
o 574
o 572
o 560
o 554
o 552
o 551
o 550
o 549
o 540
o 533
o 531
o 530
o 522
o 521
o 516
o 511
o 510
o 509
o 507
o 506
o 504
o 500
o 497
o 479
o 473
o 471
o 468
o 467
o 466
o 458
o 456
o 449
o 446
o 441
o 440
o 435
o 432
o 422
o 413
o 411
o 409
o 407
o 406
o 397
o 393
o 392
o 388
o 383
o 382
o 368
